Gurobi Optimizer version 10.0.3 build v10.0.3rc0 (win64)

CPU model: 13th Gen Intel(R) Core(TM) i7-13700T, instruction set [SSE2|AVX|AVX2]
Thread count: 16 physical cores, 24 logical processors, using up to 24 threads

Optimize a model with 1246500 rows, 160339 columns and 2560235 nonzeros
Model fingerprint: 0xe912fce5
Variable types: 0 continuous, 160339 integer (17340 binary)
Coefficient statistics:
  Matrix range     [1e+00, 6e+02]
  Objective range  [7e+00, 3e+02]
  Bounds range     [1e+00, 1e+00]
  RHS range        [1e+00, 6e+02]
Presolve removed 25329 rows and 124391 columns (presolve time = 5s) ...
Presolve removed 41188 rows and 124409 columns (presolve time = 10s) ...
Presolve removed 41188 rows and 124409 columns (presolve time = 15s) ...
Presolve removed 41188 rows and 124409 columns (presolve time = 20s) ...
Presolve removed 41188 rows and 124409 columns (presolve time = 25s) ...
Presolve removed 181300 rows and 128591 columns (presolve time = 30s) ...
Presolve removed 181300 rows and 128591 columns (presolve time = 35s) ...
Presolve removed 234216 rows and 131927 columns (presolve time = 40s) ...
Presolve removed 321602 rows and 132763 columns (presolve time = 45s) ...
Presolve removed 321642 rows and 132767 columns (presolve time = 50s) ...
Presolve removed 321642 rows and 132767 columns (presolve time = 55s) ...
Presolve removed 321642 rows and 132767 columns (presolve time = 60s) ...
Presolve removed 462143 rows and 135981 columns (presolve time = 65s) ...
Presolve removed 463270 rows and 136893 columns (presolve time = 70s) ...
Presolve removed 463270 rows and 136893 columns (presolve time = 75s) ...
Presolve removed 463270 rows and 136893 columns (presolve time = 80s) ...
Presolve removed 533086 rows and 136896 columns (presolve time = 85s) ...
Presolve removed 538238 rows and 140797 columns (presolve time = 90s) ...
Presolve removed 538846 rows and 140797 columns (presolve time = 95s) ...
Presolve removed 539360 rows and 140797 columns (presolve time = 100s) ...
Presolve removed 565219 rows and 140797 columns (presolve time = 110s) ...
Presolve removed 572801 rows and 140797 columns (presolve time = 118s) ...
Presolve removed 581006 rows and 140797 columns (presolve time = 127s) ...
Presolve removed 589295 rows and 140797 columns (presolve time = 136s) ...
Presolve removed 603268 rows and 140797 columns (presolve time = 152s) ...
Presolve removed 673209 rows and 140982 columns (presolve time = 155s) ...
Presolve removed 678955 rows and 144850 columns (presolve time = 160s) ...
Presolve removed 680252 rows and 144850 columns (presolve time = 165s) ...
Presolve removed 721511 rows and 144850 columns (presolve time = 170s) ...
Presolve removed 813628 rows and 145041 columns (presolve time = 176s) ...
Presolve removed 819542 rows and 148887 columns (presolve time = 180s) ...
Presolve removed 821151 rows and 148887 columns (presolve time = 185s) ...
Presolve removed 846645 rows and 148887 columns (presolve time = 192s) ...
Presolve removed 854299 rows and 148887 columns (presolve time = 198s) ...
Presolve removed 862573 rows and 148887 columns (presolve time = 205s) ...
Presolve removed 870701 rows and 148887 columns (presolve time = 212s) ...
Presolve removed 882881 rows and 148887 columns (presolve time = 223s) ...
Presolve removed 883825 rows and 149082 columns (presolve time = 225s) ...
Presolve removed 959610 rows and 152877 columns (presolve time = 230s) ...
Presolve removed 959610 rows and 152877 columns (presolve time = 235s) ...
Presolve removed 987548 rows and 152877 columns (presolve time = 240s) ...
Presolve removed 1008345 rows and 152877 columns (presolve time = 251s) ...
Presolve removed 1016515 rows and 152877 columns (presolve time = 262s) ...
Presolve removed 1023201 rows and 153084 columns (presolve time = 270s) ...
Presolve removed 1096719 rows and 156798 columns (presolve time = 275s) ...
Presolve removed 1101100 rows and 156798 columns (presolve time = 280s) ...
Presolve removed 1141110 rows and 156798 columns (presolve time = 285s) ...
Presolve removed 1147638 rows and 156798 columns (presolve time = 294s) ...
Presolve removed 1155752 rows and 156798 columns (presolve time = 306s) ...
Presolve removed 1161147 rows and 157026 columns (presolve time = 313s) ...
Presolve removed 1206073 rows and 157026 columns (presolve time = 315s) ...
Presolve removed 1245586 rows and 159832 columns (presolve time = 320s) ...
Presolve removed 1246481 rows and 160211 columns
Presolve time: 321.69s
Presolved: 19 rows, 128 columns, 301 nonzeros
Variable types: 0 continuous, 128 integer (67 binary)
Found heuristic solution: objective 40484.960000

Root simplex log...

Iteration    Objective       Primal Inf.    Dual Inf.      Time
       0    4.9676240e+04   4.312500e+01   0.000000e+00    323s
      15    4.9676240e+04   0.000000e+00   0.000000e+00    323s

Root relaxation: objective 4.967624e+04, 15 iterations, 0.01 seconds (0.00 work units)

    Nodes    |    Current Node    |     Objective Bounds      |     Work
 Expl Unexpl |  Obj  Depth IntInf | Incumbent    BestBd   Gap | It/Node Time

*    0     0               0    49676.240000 49676.2400  0.00%     -  323s

Explored 1 nodes (15 simplex iterations) in 323.63 seconds (19.43 work units)
Thread count was 24 (of 24 available processors)

Solution count 2: 49676.2 40485 

Optimal solution found (tolerance 1.00e-04)
Best objective 4.967624000000e+04, best bound 4.967624000000e+04, gap 0.0000%
Valor da função objetivo:  49676.240000000005

Tempo para criar o modelo:  92.15492486953735
